NAME: n90q40D.tsp, 90 nodes, semilla 333
COMMENT: Problema aleatorio de norma euclidea
DIMENSION: 90
CAPACITY: 40
EDGE_WEIGHT_TYPE: EUC_2D
NODE_COORD_SECTION
1   0.0000   0.0000
2 -273.0000 -373.0000
3 -371.0000 -268.0000
4 179.0000 469.0000
5 276.0000 -496.0000
6 422.0000 287.0000
7 -499.0000 -363.0000
8 -316.0000  89.0000
9 -162.0000 460.0000
10   1.0000 -59.0000
11 344.0000 303.0000
12 200.0000 -248.0000
13 -28.0000 -410.0000
14 382.0000  85.0000
15 -112.0000 472.0000
16 262.0000 315.0000
17 274.0000 221.0000
18 101.0000  87.0000
19 -307.0000 284.0000
20 209.0000 -451.0000
21 482.0000 441.0000
22 -130.0000  11.0000
23 -336.0000 386.0000
24  97.0000 -186.0000
25 415.0000 209.0000
26 -479.0000 370.0000
27 -95.0000 132.0000
28 242.0000 444.0000
29 -126.0000 -196.0000
30  75.0000 -326.0000
31 194.0000 123.0000
32 -301.0000 -395.0000
33 -440.0000 -479.0000
34 -272.0000 -387.0000
35 489.0000  56.0000
36  88.0000 182.0000
37 -231.0000 311.0000
38 331.0000 -437.0000
39 -94.0000 228.0000
40 336.0000 296.0000
41 -421.0000 -186.0000
42 -192.0000 492.0000
43 410.0000 -423.0000
44 464.0000 302.0000
45  53.0000 -493.0000
46 363.0000 286.0000
47 149.0000 375.0000
48 -321.0000 -352.0000
49 461.0000   8.0000
50 478.0000 157.0000
51 -126.0000 -72.0000
52 -40.0000 -77.0000
53 -253.0000 -55.0000
54 -305.0000 -10.0000
55 -470.0000 460.0000
56  43.0000 -26.0000
57  27.0000  80.0000
58 495.0000 -429.0000
59  36.0000 310.0000
60 124.0000 382.0000
61 326.0000 -485.0000
62 -28.0000 130.0000
63 -468.0000 -299.0000
64 106.0000 235.0000
65 337.0000 161.0000
66 -328.0000 -402.0000
67 415.0000 -404.0000
68  33.0000 329.0000
69 437.0000 -160.0000
70 296.0000 -36.0000
71 -447.0000 -38.0000
72 -80.0000 -168.0000
73 246.0000 -142.0000
74 358.0000 -433.0000
75 -329.0000 -413.0000
76 380.0000 285.0000
77 301.0000 -157.0000
78 -152.0000 -355.0000
79 -475.0000 -75.0000
80  20.0000 -225.0000
81 -194.0000 125.0000
82 -386.0000 208.0000
83 -215.0000 -357.0000
84 -117.0000 274.0000
85 -270.0000 301.0000
86 456.0000 -378.0000
87 326.0000 270.0000
88 -495.0000 -297.0000
89 -483.0000 -341.0000
90 -306.0000 137.0000
DISPLAY_DATA_SECTION:
 1  250  250
 2  113   63
 3   64  116
 4  339  484
 5  388    2
 6  461  393
 7    0   68
 8   92  294
 9  169  480
10  250  220
11  422  401
12  350  126
13  236   45
14  441  292
15  194  486
16  381  407
17  387  360
18  300  293
19   96  392
20  354   24
21  491  470
22  185  255
23   82  443
24  298  157
25  457  354
26   10  435
27  202  316
28  371  472
29  187  152
30  287   87
31  347  311
32   99   52
33   30   10
34  114   56
35  494  278
36  294  341
37  134  405
38  415   31
39  203  364
40  418  398
41   39  157
42  154  496
43  455   38
44  482  401
45  276    3
46  431  393
47  324  437
48   89   74
49  480  254
50  489  328
51  187  214
52  230  211
53  123  222
54   97  245
55   15  480
56  271  237
57  263  290
58  497   35
59  268  405
60  312  441
61  413    7
62  236  315
63   16  100
64  303  367
65  418  330
66   86   49
67  457   48
68  266  414
69  468  170
70  398  232
71   26  231
72  210  166
73  373  179
74  429   33
75   85   43
76  440  392
77  400  171
78  174   72
79   12  212
80  260  137
81  153  312
82   57  354
83  142   71
84  191  387
85  115  400
86  478   61
87  413  385
88    2  101
89    8   79
90   97  318
DEMAND_SECTION
1 2
2 8
3 5
4 -2
5 -10
6 -10
7 -1
8 0
9 8
10 -8
11 7
12 9
13 -6
14 0
15 5
16 -1
17 2
18 -8
19 1
20 0
21 -7
22 3
23 -2
24 -7
25 6
26 -1
27 -10
28 5
29 0
30 2
31 0
32 -7
33 5
34 -2
35 2
36 -8
37 6
38 -8
39 3
40 5
41 9
42 5
43 -8
44 -8
45 0
46 10
47 -6
48 8
49 10
50 -8
51 -10
52 -8
53 -2
54 -1
55 4
56 -4
57 -5
58 -4
59 4
60 -9
61 5
62 3
63 0
64 8
65 0
66 8
67 0
68 -8
69 6
70 3
71 -8
72 3
73 0
74 -9
75 5
76 8
77 6
78 0
79 -2
80 9
81 -8
82 -10
83 -6
84 0
85 3
86 5
87 1
88 1
89 7
90 7
EOF